MSW06
Position Depot: Random
Horizon for Depot: Small
Position of customers: Mixt
Distribution of the demand: Small
Width of time windows: Wide
Distribution of the service: Small

VEHICLE 
NUMBER 	 CAPACITY 
 12 	 	 29 
 
CUSTOMER
CUST NO. 	 XCOORD.  	 YCOORD. 	 DEMAND 	 READY TIME 	 DUE DATE 	 SERVICE TIME 
 0 	 	 197 	 	 360 	 	 0 	 	 0 	 	 1993 	 	 0 
  1 	 	 339 	 	 404 	 	 10 	 	 551 	 	 870 	 	 50 
  2 	 	 176 	 	 574 	 	 6 	 	 653 	 	 1153 	 	 90 
  3 	 	 779 	 	 681 	 	 6 	 	 783 	 	 1117 	 	 82 
  4 	 	 207 	 	 268 	 	 5 	 	 787 	 	 1117 	 	 99 
  5 	 	 237 	 	 693 	 	 7 	 	 1542 	 	 1993 	 	 77 
  6 	 	 209 	 	 408 	 	 7 	 	 1132 	 	 1441 	 	 91 
  7 	 	 344 	 	 478 	 	 5 	 	 412 	 	 799 	 	 59 
  8 	 	 370 	 	 249 	 	 8 	 	 -142 	 	 266 	 	 62 
  9 	 	 366 	 	 474 	 	 8 	 	 1217 	 	 1716 	 	 59 
  10 	 	 468 	 	 232 	 	 10 	 	 1512 	 	 1993 	 	 80 
  11 	 	 362 	 	 239 	 	 8 	 	 1662 	 	 1993 	 	 96 
  12 	 	 180 	 	 211 	 	 5 	 	 1624 	 	 1974 	 	 95 
  13 	 	 809 	 	 704 	 	 8 	 	 629 	 	 879 	 	 83 
  14 	 	 140 	 	 588 	 	 7 	 	 682 	 	 1077 	 	 60 
  15 	 	 206 	 	 241 	 	 6 	 	 1074 	 	 1441 	 	 55 
  16 	 	 749 	 	 677 	 	 10 	 	 791 	 	 1034 	 	 98 
  17 	 	 799 	 	 720 	 	 9 	 	 534 	 	 771 	 	 87 
  18 	 	 226 	 	 307 	 	 8 	 	 1102 	 	 1387 	 	 75 
  19 	 	 720 	 	 735 	 	 6 	 	 655 	 	 1039 	 	 75 
  20 	 	 731 	 	 737 	 	 6 	 	 387 	 	 719 	 	 73 
  21 	 	 64 	 	 572 	 	 10 	 	 -12 	 	 275 	 	 80 
  22 	 	 190 	 	 299 	 	 8 	 	 1646 	 	 1915 	 	 71 
  23 	 	 259 	 	 328 	 	 5 	 	 621 	 	 1092 	 	 91 
  24 	 	 241 	 	 525 	 	 8 	 	 1195 	 	 1577 	 	 64 
  25 	 	 309 	 	 340 	 	 5 	 	 785 	 	 1048 	 	 60 
  26 	 	 517 	 	 750 	 	 7 	 	 945 	 	 1248 	 	 96 
  27 	 	 703 	 	 725 	 	 5 	 	 465 	 	 686 	 	 84 
  28 	 	 574 	 	 740 	 	 5 	 	 1189 	 	 1637 	 	 54 
  29 	 	 137 	 	 455 	 	 9 	 	 1640 	 	 1993 	 	 91 
  30 	 	 153 	 	 712 	 	 6 	 	 1254 	 	 1598 	 	 99 
  31 	 	 106 	 	 760 	 	 6 	 	 717 	 	 944 	 	 58 
  32 	 	 737 	 	 412 	 	 9 	 	 1277 	 	 1707 	 	 76 
  33 	 	 861 	 	 91 	 	 7 	 	 912 	 	 1317 	 	 93 
  34 	 	 611 	 	 151 	 	 10 	 	 1055 	 	 1351 	 	 92 
  35 	 	 48 	 	 929 	 	 9 	 	 1265 	 	 1679 	 	 83 
  36 	 	 356 	 	 319 	 	 5 	 	 1518 	 	 1993 	 	 90 
  37 	 	 973 	 	 492 	 	 6 	 	 886 	 	 1225 	 	 91 
  38 	 	 687 	 	 634 	 	 6 	 	 1703 	 	 1946 	 	 79 
  39 	 	 701 	 	 824 	 	 8 	 	 1509 	 	 1993 	 	 54 
  40 	 	 280 	 	 252 	 	 6 	 	 1078 	 	 1483 	 	 60 
  41 	 	 363 	 	 3 	 	 7 	 	 672 	 	 1152 	 	 64 
  42 	 	 307 	 	 916 	 	 7 	 	 1743 	 	 1993 	 	 96 
  43 	 	 199 	 	 437 	 	 10 	 	 16 	 	 319 	 	 69 
  44 	 	 47 	 	 97 	 	 7 	 	 1727 	 	 1993 	 	 52 
  45 	 	 179 	 	 277 	 	 6 	 	 1079 	 	 1579 	 	 79 
  46 	 	 939 	 	 758 	 	 6 	 	 1342 	 	 1660 	 	 89 
  47 	 	 670 	 	 527 	 	 7 	 	 283 	 	 551 	 	 60 
  48 	 	 131 	 	 549 	 	 9 	 	 1118 	 	 1328 	 	 89 
  49 	 	 197 	 	 205 	 	 7 	 	 1061 	 	 1321 	 	 78 
  50 	 	 406 	 	 134 	 	 9 	 	 366 	 	 728 	 	 88 
 